
set N:=1,2,3,4,5,6;

param: A:=
1	50000
2	80000
3	30000
4	55000
5	35000
6	20000
;

param T:  	1	2	3	4	5	6 :=
1	1	8	12	14	10	16
2	8	1	6	18	16	16
3	12	18	1.5	12	6	4
4	16	14	4	1	16	12
5	18	16	10	4	2	2
6	16	18	4	12	2	2
;	

